
--- Job Hw 5 water resrvoir problem.gms Start 10/09/24 21:24:17 47.6.0 c2de9d6d WEX-WEI x86 64bit/MS Windows
--- Applying:
    C:\GAMS\47\gmsprmNT.txt
--- GAMS Parameters defined
    Input "C:\Users\prachanda\Box\My Canvases\Assignment\Fall 2024\Systematic Analysi\Hw5\Hw 5 water resrvoir problem.gms"
    PageSize 0
    ScrDir "C:\Users\prachanda\Box\My Canvases\Assignment\Fall 2024\Systematic Analysi\Hw5\225a\"
    SysDir C:\GAMS\47\
    LogOption 3
    ErrMsg 1
    ErrorLog 99
    IDE 1
    LstTitleLeftAligned 1
Licensee: GAMS Demo, for EULA and demo limitations see   G240530/0001CB-GEN
          https://www.gams.com/latest/docs/UG%5FLicense.html         DC0000
          C:\GAMS\47\gamslice.txt
          Demo license for demonstration and instructional purposes only
Processor information: 1 socket(s), 4 core(s), and 8 thread(s) available
GAMS 47.6.0   Copyright (C) 1987-2024 GAMS Development. All rights reserved
--- Starting compilation
--- Hw 5 water resrvoir problem.gms(108) 3 Mb
--- Starting execution: elapsed 0:00:00.018
--- Generating LP model reservoir_operation
--- Hw 5 water resrvoir problem.gms(106) 4 Mb
---   32 rows  31 columns  79 non-zeroes
--- Range statistics (absolute non-zero finite values)
--- RHS       [min, max] : [ 1.000E+00, 9.000E+00] - Zero values observed as well
--- Bound     [min, max] : [        NA,        NA] - Zero values observed as well
--- Matrix    [min, max] : [ 1.000E+00, 2.200E+00]
--- Executing CPLEX (Solvelink=2): elapsed 0:00:00.092

IBM ILOG CPLEX   47.6.0 c2de9d6d Sep 12, 2024          WEI x86 64bit/MS Window

*** This solver runs with a demo license. No commercial use.
--- GMO setup time: 0.00s
--- GMO memory 0.50 Mb (peak 0.50 Mb)
--- Dictionary memory 0.00 Mb
--- Cplex 22.1.1.0 link memory 0.00 Mb (peak 0.00 Mb)
--- Starting Cplex

Version identifier: 22.1.1.0 | 2022-11-27 | 9160aff4d
CPXPARAM_Advance                                 0
CPXPARAM_MIP_Display                             4
CPXPARAM_MIP_Pool_Capacity                       0
CPXPARAM_MIP_Tolerances_AbsMIPGap                0
Tried aggregator 1 time.
LP Presolve eliminated 19 rows and 7 columns.
Reduced LP has 12 rows, 24 columns, and 41 nonzeros.
Presolve time = 0.00 sec. (0.03 ticks)
Initializing dual steep norms . . .

Iteration log . . .
Iteration:     1   Dual infeasibility =             9.500000
Iteration:    11   Dual objective     =            67.400000

--- LP status (1): optimal.
--- Cplex Time: 0.00sec (det. 0.06 ticks)


Optimal solution found
Objective:           51.600000

--- Reading solution for model reservoir_operation
--- Executing after solve: elapsed 0:00:00.152
--- Hw 5 water resrvoir problem.gms(108) 4 Mb
*** Status: Normal completion
--- Job Hw 5 water resrvoir problem.gms Stop 10/09/24 21:24:17 elapsed 0:00:00.176
